# Tests for the experimental opt-driven cascades.
subtest OptDriven

# Single delete cascade.
statement ok
CREATE TABLE parent (p INT PRIMARY KEY);
CREATE TABLE child (
  c INT PRIMARY KEY,
  p INT NOT NULL REFERENCES parent(p) ON DELETE CASCADE
);
INSERT INTO parent VALUES (1), (2);
INSERT INTO child VALUES (1, 1), (2, 2), (10, 1), (20, 2);

query II rowsort
SELECT * FROM child
----
1   1
2   2
10  1
20  2

statement ok
DELETE FROM parent WHERE p >= 2

query II rowsort
SELECT * FROM child
----
1   1
10  1

statement ok
DELETE FROM parent WHERE p <= 2

query II
SELECT * FROM child
----

# Delete cascade which itself has a check.
statement ok
CREATE TABLE grandchild (
  g INT PRIMARY KEY,
  c INT REFERENCES child(c)
);
INSERT INTO parent VALUES (1), (2);
INSERT INTO child VALUES (10, 1), (11, 1), (20, 2), (21, 2);
INSERT INTO grandchild VALUES (100, 10), (101, 10), (110, 11);

statement ok
DELETE FROM parent WHERE p = 2

statement error delete on table "child" violates foreign key constraint "fk_c_ref_child" on table "grandchild"\nDETAIL: Key \(c\)\=\(1[01]\) is still referenced from table "grandchild"
DELETE FROM parent WHERE p = 1

statement ok
DELETE FROM grandchild WHERE c = 10

statement error delete on table "child" violates foreign key constraint "fk_c_ref_child" on table "grandchild"\nDETAIL: Key \(c\)=\(11\) is still referenced from table "grandchild"
DELETE FROM parent WHERE p = 1

statement ok
DELETE FROM grandchild WHERE c = 11

statement ok
DELETE FROM parent WHERE p = 1

statement ok
DROP TABLE grandchild

# Delete cascade which itself has a cascade.
statement ok
CREATE TABLE grandchild (
  g INT PRIMARY KEY,
  c INT REFERENCES child(c) ON DELETE CASCADE
);
INSERT INTO parent VALUES (1), (2);
INSERT INTO child VALUES (10, 1), (11, 1), (20, 2), (21, 2);
INSERT INTO grandchild VALUES (100, 10), (101, 10), (110, 11), (200, 20)

statement ok
DELETE FROM parent WHERE p = 1

query II rowsort
SELECT * FROM child
----
20  2
21  2

query II rowsort
SELECT * FROM grandchild
----
200  20

statement ok
DELETE FROM parent WHERE p = 2

query II
SELECT * FROM child
----

query II
SELECT * FROM grandchild
----

statement ok
DROP TABLE grandchild;
DROP TABLE child;
DROP TABLE parent

# Delete cascade with multiple columns and multiple child tables.
statement ok
CREATE TABLE parent_multi (pa INT, pb INT, pc INT, UNIQUE INDEX (pa,pb,pc));
CREATE TABLE child_multi_1 (
  c INT,
  a INT,
  b INT,
  FOREIGN KEY (a,b,c) REFERENCES parent_multi(pa,pb,pc) ON DELETE CASCADE
);
CREATE TABLE child_multi_2 (
  b INT,
  c INT,
  a INT,
  FOREIGN KEY (a,b,c) REFERENCES parent_multi(pa,pb,pc) ON DELETE CASCADE
)

statement ok
INSERT INTO parent_multi VALUES (1, 10, 100), (2, 20, 200), (3, 30, 300), (NULL, NULL, NULL);
INSERT INTO child_multi_1(a,b,c) VALUES (1, 10, 100), (2, 20, 200), (1, 10, 100), (2, 20, 200), (NULL, NULL, NULL);
INSERT INTO child_multi_2(a,b,c) VALUES (2, 20, 200), (3, 30, 300)

query III rowsort
SELECT * FROM parent_multi
----
1     10    100
2     20    200
3     30    300
NULL  NULL  NULL

query III rowsort
SELECT a,b,c FROM child_multi_1
----
1     10    100
2     20    200
1     10    100
2     20    200
NULL  NULL  NULL

query III rowsort
SELECT a,b,c FROM child_multi_2
----
2  20  200
3  30  300

statement ok
DELETE FROM parent_multi WHERE pa = 1

query III rowsort
SELECT * FROM parent_multi
----
2     20    200
3     30    300
NULL  NULL  NULL

query III rowsort
SELECT a,b,c FROM child_multi_1
----
2     20    200
2     20    200
NULL  NULL  NULL

query III rowsort
SELECT a,b,c FROM child_multi_2
----
2  20  200
3  30  300

statement ok
DELETE FROM parent_multi WHERE pb = 20

query III rowsort
SELECT * FROM parent_multi
----
3     30    300
NULL  NULL  NULL

query III rowsort
SELECT a,b,c FROM child_multi_1
----
NULL  NULL  NULL

query III rowsort
SELECT a,b,c FROM child_multi_2
----
3  30  300

# Deleting NULLs should not cause any changes in a child.
statement ok
DELETE FROM parent_multi WHERE pa IS NULL

query III rowsort
SELECT * FROM parent_multi
----
3  30  300

query III rowsort
SELECT a,b,c FROM child_multi_1
----
NULL  NULL  NULL

query III rowsort
SELECT a,b,c FROM child_multi_2
----
3  30  300

statement ok
DROP TABLE child_multi_1;
DROP TABLE child_multi_2;
DROP TABLE parent_multi

# Self-referencing cascade.
statement ok
CREATE TABLE self (a INT PRIMARY KEY, b INT REFERENCES self(a) ON DELETE CASCADE)

statement ok
INSERT INTO self VALUES (1, NULL);
INSERT INTO self SELECT x, x-1 FROM generate_series(2, 10) AS g(x)

statement ok
DELETE FROM self WHERE a = 4

query II rowsort
SELECT * FROM self
----
1   NULL
2   1
3   2

statement ok
DELETE FROM self WHERE a = 1

query II
SELECT * FROM self
----

# Test cascade limit setting.
statement ok
INSERT INTO self VALUES (1, NULL);
INSERT INTO self SELECT x, x-1 FROM generate_series(2, 20) AS g(x)

statement ok
SET foreign_key_cascades_limit = 10

statement error cascades limit \(10\) reached
DELETE FROM self WHERE a = 1

statement ok
RESET foreign_key_cascades_limit

statement ok
DROP TABLE self

subtest AllCascadingActions
### A test of all cascading actions in their most basic form.
# A
# |
# B

statement ok
CREATE TABLE a (
  id INT PRIMARY KEY
);

statement ok
CREATE TABLE b (
  delete_no_action INT NOT NULL REFERENCES a ON DELETE NO ACTION
 ,update_no_action INT NOT NULL REFERENCES a ON UPDATE NO ACTION
 ,delete_restrict INT NOT NULL REFERENCES a ON DELETE RESTRICT
 ,update_restrict INT NOT NULL REFERENCES a ON UPDATE RESTRICT
 ,delete_cascade INT NOT NULL REFERENCES a ON DELETE CASCADE
 ,update_cascade INT NOT NULL REFERENCES a ON UPDATE CASCADE
 ,delete_null INT REFERENCES a ON DELETE SET NULL
 ,update_null INT REFERENCES a ON UPDATE SET NULL
 ,delete_default INT DEFAULT 109 REFERENCES a ON DELETE SET DEFAULT
 ,update_default INT DEFAULT 110 REFERENCES a ON UPDATE SET DEFAULT
);

statement ok
INSERT INTO a (id) VALUES (1), (2), (3), (4), (5), (6), (7), (8), (9), (10), (109), (110);
INSERT INTO b VALUES (1, 2, 3, 4, 5, 6, 7, 8, 9, 10);

query IIIIIIIIII
SELECT * FROM b;
----
1 2 3 4 5 6 7 8 9 10

# 1. ON DELETE NO ACTION
statement error pq: delete on table "a" violates foreign key constraint "fk_delete_no_action_ref_a" on table "b"\nDETAIL: Key \(id\)=\(1\) is still referenced from table "b"\.
DELETE FROM a WHERE id = 1;

# 2. ON UPDATE NO ACTION
statement error pq: update on table "a" violates foreign key constraint "fk_update_no_action_ref_a" on table "b"\nDETAIL: Key \(id\)=\(2\) is still referenced from table "b"\.
UPDATE a SET id = 1000 WHERE id = 2;

# 3. ON DELETE RESTRICT
statement error pq: delete on table "a" violates foreign key constraint "fk_delete_restrict_ref_a" on table "b"\nDETAIL: Key \(id\)=\(3\) is still referenced from table "b"\.
DELETE FROM a WHERE id = 3;

# 4. ON UPDATE RESTRICT
statement error pq: update on table "a" violates foreign key constraint "fk_update_restrict_ref_a" on table "b"\nDETAIL: Key \(id\)=\(4\) is still referenced from table "b"\.
UPDATE a SET id = 1000 WHERE id = 4;

# 5. ON DELETE CASCADE
statement ok
DELETE FROM a WHERE id = 5;

query I
SELECT count(*) FROM b;
----
0

statement ok
INSERT INTO a VALUES (5);
INSERT INTO b VALUES (1, 2, 3, 4, 5, 6, 7, 8, 9, 10);

# 6. ON UPDATE CASCADE
statement ok
UPDATE a SET id = 1006 WHERE id = 6;

query IIIIIIIIII
SELECT * FROM b;
----
1  2  3  4  5  1006  7  8  9  10

# Also ensure that normal errors are still correctly wrapped even if cascading.
statement error pq: duplicate key value violates unique constraint "primary"\nDETAIL: Key \(id\)=\(1\) already exists\.
UPDATE a SET id = 1 WHERE id = 1006;

# 7. ON DELETE SET NULL
statement ok
DELETE FROM a WHERE id = 7;

query IIIIIIIIII
SELECT * FROM b;
----
1  2  3  4  5  1006  NULL  8  9  10

# 8. ON UPDATE SET NULL
statement ok
UPDATE a SET id = 1008 WHERE id = 8;

query IIIIIIIIII
SELECT * FROM b;
----
1  2  3  4  5  1006  NULL  NULL  9  10

# 9. ON DELETE SET DEFAULT
statement ok
DELETE FROM a WHERE id = 9

query IIIIIIIIII
SELECT * FROM b;
----
1  2  3  4  5  1006  NULL  NULL  109  10

# 10. ON UPDATE SET DEFAULT
statement ok
UPDATE a SET id = 1010 WHERE id = 10;

query IIIIIIIIII
SELECT * FROM b;
----
1  2  3  4  5  1006  NULL  NULL  109  110

# Post Test Clean up
statement ok
DROP TABLE b, a;

subtest DeleteCascade_Basic
### Basic Delete Cascade
#     a
#    / \
#   b1 b2
#  / \   \
# c1  c2  c3

statement ok
CREATE TABLE a (
  id STRING PRIMARY KEY
);

statement ok
CREATE TABLE b1 (
  id STRING PRIMARY KEY
 ,delete_cascade STRING NOT NULL REFERENCES a ON DELETE CASCADE
);

statement ok
CREATE TABLE b2 (
  id STRING PRIMARY KEY
 ,delete_cascade STRING NOT NULL REFERENCES a ON DELETE CASCADE
);

statement ok
CREATE TABLE c1 (
  id STRING PRIMARY KEY
 ,delete_cascade STRING NOT NULL REFERENCES b1 ON DELETE CASCADE
);

statement ok
CREATE TABLE c2 (
  id STRING PRIMARY KEY
 ,delete_cascade STRING NOT NULL REFERENCES b1 ON DELETE CASCADE
);

statement ok
CREATE TABLE c3 (
  id STRING PRIMARY KEY REFERENCES b2 ON DELETE CASCADE
);

statement ok
INSERT INTO a VALUES ('a-pk1');
INSERT INTO b1 VALUES ('b1-pk1', 'a-pk1'), ('b1-pk2', 'a-pk1');
INSERT INTO b2 VALUES ('b2-pk1', 'a-pk1'), ('b2-pk2', 'a-pk1');
INSERT INTO c1 VALUES
  ('c1-pk1-b1-pk1', 'b1-pk1')
 ,('c1-pk2-b1-pk1', 'b1-pk1')
 ,('c1-pk3-b1-pk2', 'b1-pk2')
 ,('c1-pk4-b1-pk2', 'b1-pk2')
;
INSERT INTO c2 VALUES
  ('c2-pk1-b1-pk1', 'b1-pk1')
 ,('c2-pk2-b1-pk1', 'b1-pk1')
 ,('c2-pk3-b1-pk2', 'b1-pk2')
 ,('c2-pk4-b1-pk2', 'b1-pk2')
;
INSERT INTO c3 VALUES ('b2-pk1'), ('b2-pk2');

# ON DELETE CASCADE
statement ok
DELETE FROM a WHERE id = 'a-pk1';

query IIIIII
SELECT
  (SELECT count(*) FROM a)
 ,(SELECT count(*) FROM b1)
 ,(SELECT count(*) FROM b2)
 ,(SELECT count(*) FROM c1)
 ,(SELECT count(*) FROM c2)
 ,(SELECT count(*) FROM c3)
;
----
0 0 0 0 0 0

# Clean up after the test.
statement ok
DROP TABLE c3, c2, c1, b2, b1, a;

subtest DeleteCascade_PrimaryKeys
### Basic Delete Cascade using primary keys
#     a
#    / \
#   b1 b2
#  / \
# c1  c2

statement ok
CREATE TABLE a (
  id STRING PRIMARY KEY
);

statement ok
CREATE TABLE b1 (
  id STRING PRIMARY KEY REFERENCES a ON DELETE CASCADE
);

statement ok
CREATE TABLE b2 (
  id STRING PRIMARY KEY REFERENCES a ON DELETE CASCADE
);

statement ok
CREATE TABLE c1 (
  id STRING PRIMARY KEY REFERENCES b1 ON DELETE CASCADE
);

statement ok
CREATE TABLE c2 (
  id STRING PRIMARY KEY REFERENCES b1 ON DELETE CASCADE
);

statement ok
INSERT INTO a VALUES ('pk1');
INSERT INTO b1 VALUES ('pk1');
INSERT INTO b2 VALUES ('pk1');
INSERT INTO c1 VALUES ('pk1');
INSERT INTO c2 VALUES ('pk1');

# ON DELETE CASCADE
statement ok
DELETE FROM a WHERE id = 'pk1';

query IIIII
SELECT
  (SELECT count(*) FROM a)
 ,(SELECT count(*) FROM b1)
 ,(SELECT count(*) FROM b2)
 ,(SELECT count(*) FROM c1)
 ,(SELECT count(*) FROM c2)
;
----
0 0 0 0 0

# Clean up after the test.
statement ok
DROP TABLE c2, c1, b2, b1, a;

subtest DeleteCascade_CompositeFKs_MatchSimple
### Basic Delete Cascade with composite FKs
#     a
#    / \
#   b1 b2
#  / \
# c1  c2

statement ok
CREATE TABLE a (
  id STRING PRIMARY KEY
 ,x INT
 ,UNIQUE (id, x)
);

statement ok
CREATE TABLE b1 (
  id STRING PRIMARY KEY
 ,a_id STRING
 ,x INT
 ,y INT
 ,INDEX (a_id, x, y)
 ,FOREIGN KEY (a_id, x) REFERENCES a (id, x) ON DELETE CASCADE
 ,UNIQUE (id, x)
);

statement ok
CREATE TABLE b2 (
  id STRING PRIMARY KEY
 ,a_id STRING
 ,x INT
 ,y INT
 ,INDEX (a_id, x, y)
 ,FOREIGN KEY (a_id, x) REFERENCES a (id, x) ON DELETE CASCADE
 ,UNIQUE (id, x)
);

statement ok
CREATE TABLE c1 (
  id STRING PRIMARY KEY
 ,b_id STRING
 ,x INT
 ,FOREIGN KEY (b_id, x) REFERENCES b1 (id, x) ON DELETE CASCADE
);

statement ok
CREATE TABLE c2 (
  id STRING PRIMARY KEY
 ,b_id STRING
 ,x INT
 ,FOREIGN KEY (b_id, x) REFERENCES b1 (id, x) ON DELETE CASCADE
);

statement ok
INSERT INTO a VALUES ('a-pk1', 1);
INSERT INTO b1 VALUES ('b1-pk1', 'a-pk1', 1, 1), ('b1-pk2', 'a-pk1', 1, 2);
INSERT INTO b2 VALUES ('b2-pk1', 'a-pk1', 1, 1), ('b2-pk2', 'a-pk1', 1, 2);
INSERT INTO c1 VALUES
  ('c1-pk1-b1-pk1', 'b1-pk1', 1)
 ,('c1-pk2-b1-pk1', 'b1-pk1', 1)
 ,('c1-pk3-b1-pk2', 'b1-pk2', 1)
 ,('c1-pk4-b1-pk2', 'b1-pk2', 1)
;
INSERT INTO c2 VALUES
  ('c2-pk1-b1-pk1', 'b1-pk1', 1)
 ,('c2-pk2-b1-pk1', 'b1-pk1', 1)
 ,('c2-pk3-b1-pk2', 'b1-pk2', 1)
 ,('c2-pk4-b1-pk2', 'b1-pk2', 1)
;

# ON DELETE CASCADE
statement ok
DELETE FROM a WHERE id = 'a-pk1';

query IIIII
SELECT
  (SELECT count(*) FROM a)
 ,(SELECT count(*) FROM b1)
 ,(SELECT count(*) FROM b2)
 ,(SELECT count(*) FROM c1)
 ,(SELECT count(*) FROM c2)
;
----
0 0 0 0 0

# Clean up after the test.
statement ok
DROP TABLE c2, c1, b2, b1, a;

subtest DeleteCascade_CompositeFKs_MatchFull
### Basic Delete Cascade with composite FKs
#     a
#    / \
#   b1 b2
#  / \
# c1  c2

statement ok
CREATE TABLE a (
  id STRING PRIMARY KEY
 ,x INT
 ,UNIQUE (id, x)
);

statement ok
CREATE TABLE b1 (
  id STRING PRIMARY KEY
 ,a_id STRING
 ,x INT
 ,y INT
 ,INDEX (a_id, x, y)
 ,FOREIGN KEY (a_id, x) REFERENCES a (id, x) MATCH FULL ON DELETE CASCADE
 ,UNIQUE (id, x)
);

statement ok
CREATE TABLE b2 (
  id STRING PRIMARY KEY
 ,a_id STRING
 ,x INT
 ,y INT
 ,INDEX (a_id, x, y)
 ,FOREIGN KEY (a_id, x) REFERENCES a (id, x) MATCH FULL ON DELETE CASCADE
 ,UNIQUE (id, x)
);

statement ok
CREATE TABLE c1 (
  id STRING PRIMARY KEY
 ,b_id STRING
 ,x INT
 ,FOREIGN KEY (b_id, x) REFERENCES b1 (id, x) MATCH FULL ON DELETE CASCADE
);

statement ok
CREATE TABLE c2 (
  id STRING PRIMARY KEY
 ,b_id STRING
 ,x INT
 ,FOREIGN KEY (b_id, x) REFERENCES b1 (id, x) MATCH FULL ON DELETE CASCADE
);

statement ok
INSERT INTO a VALUES ('a-pk1', 1);
INSERT INTO b1 VALUES ('b1-pk1', 'a-pk1', 1, 1), ('b1-pk2', 'a-pk1', 1, 2);
INSERT INTO b2 VALUES ('b2-pk1', 'a-pk1', 1, 1), ('b2-pk2', 'a-pk1', 1, 2);
INSERT INTO c1 VALUES
  ('c1-pk1-b1-pk1', 'b1-pk1', 1)
 ,('c1-pk2-b1-pk1', 'b1-pk1', 1)
 ,('c1-pk3-b1-pk2', 'b1-pk2', 1)
 ,('c1-pk4-b1-pk2', 'b1-pk2', 1)
;
INSERT INTO c2 VALUES
  ('c2-pk1-b1-pk1', 'b1-pk1', 1)
 ,('c2-pk2-b1-pk1', 'b1-pk1', 1)
 ,('c2-pk3-b1-pk2', 'b1-pk2', 1)
 ,('c2-pk4-b1-pk2', 'b1-pk2', 1)
;

# ON DELETE CASCADE
statement ok
DELETE FROM a WHERE id = 'a-pk1';

query IIIII
SELECT
  (SELECT count(*) FROM a)
 ,(SELECT count(*) FROM b1)
 ,(SELECT count(*) FROM b2)
 ,(SELECT count(*) FROM c1)
 ,(SELECT count(*) FROM c2)
;
----
0 0 0 0 0

# Clean up after the test.
statement ok
DROP TABLE c2, c1, b2, b1, a;

subtest DeleteCascade_Restrict
### Basic Delete Cascade with Restrict
#     a
#    / \
#   b1 b2
#  / \
# c1  c2
#     |
#     d

statement ok
CREATE TABLE a (
  id STRING PRIMARY KEY
);

statement ok
CREATE TABLE b1 (
  id STRING PRIMARY KEY
 ,delete_cascade STRING NOT NULL REFERENCES a ON DELETE CASCADE
);

statement ok
CREATE TABLE b2 (
  id STRING PRIMARY KEY
 ,delete_cascade STRING NOT NULL REFERENCES a ON DELETE CASCADE
);

statement ok
CREATE TABLE c1 (
  id STRING PRIMARY KEY
 ,delete_cascade STRING NOT NULL REFERENCES b1 ON DELETE CASCADE
);

statement ok
CREATE TABLE c2 (
  id STRING PRIMARY KEY
 ,delete_cascade STRING NOT NULL REFERENCES b1 ON DELETE CASCADE
);

statement ok
CREATE TABLE d (
  id STRING PRIMARY KEY
 ,delete_restrict STRING NOT NULL REFERENCES c2 ON DELETE RESTRICT
);

statement ok
INSERT INTO a VALUES ('a-pk1');
INSERT INTO b1 VALUES ('b1-pk1', 'a-pk1'), ('b1-pk2', 'a-pk1');
INSERT INTO b2 VALUES ('b2-pk1', 'a-pk1'), ('b2-pk2', 'a-pk1');
INSERT INTO c1 VALUES
  ('c1-pk1-b1-pk1', 'b1-pk1')
 ,('c1-pk2-b1-pk1', 'b1-pk1')
 ,('c1-pk3-b1-pk2', 'b1-pk2')
 ,('c1-pk4-b1-pk2', 'b1-pk2')
;
INSERT INTO c2 VALUES
  ('c2-pk1-b1-pk1', 'b1-pk1')
 ,('c2-pk2-b1-pk1', 'b1-pk1')
 ,('c2-pk3-b1-pk2', 'b1-pk2')
 ,('c2-pk4-b1-pk2', 'b1-pk2')
;
INSERT INTO d VALUES ('d-pk1-c2-pk4-b1-pk2', 'c2-pk4-b1-pk2');

# ON DELETE CASCADE
statement error delete on table "c2" violates foreign key constraint "fk_delete_restrict_ref_c2" on table "d"\nDETAIL: Key \(id\)=\('c2-pk4-b1-pk2'\) is still referenced from table "d"\.
DELETE FROM a WHERE id = 'a-pk1';

# Clean up after the test.
statement ok
DROP TABLE d, c2, c1, b2, b1, a;

subtest DeleteCascade_Interleaved
### Basic Delete Cascade with Interleaved Tables
#     a
#    / \
#   b1 b2
#  / \   \
# c1  c2  c3

statement ok
CREATE TABLE a (
  id STRING PRIMARY KEY
);

statement ok
CREATE TABLE b1 (
  id STRING PRIMARY KEY REFERENCES a ON DELETE CASCADE
) INTERLEAVE IN PARENT a (id);

statement ok
CREATE TABLE b2 (
  id STRING PRIMARY KEY REFERENCES a ON DELETE CASCADE
) INTERLEAVE IN PARENT a (id);

statement ok
CREATE TABLE c1 (
  id STRING PRIMARY KEY REFERENCES b1 ON DELETE CASCADE
) INTERLEAVE IN PARENT b1 (id);

statement ok
CREATE TABLE c2 (
  id STRING PRIMARY KEY REFERENCES b1 ON DELETE CASCADE
) INTERLEAVE IN PARENT b1 (id);

statement ok
CREATE TABLE c3 (
  id STRING PRIMARY KEY REFERENCES b2 ON DELETE CASCADE
) INTERLEAVE IN PARENT b2 (id);

statement ok
INSERT INTO a VALUES ('pk1'), ('pk2');
INSERT INTO b1 VALUES ('pk1'), ('pk2');
INSERT INTO b2 VALUES ('pk1'), ('pk2');
INSERT INTO c1 VALUES ('pk1'), ('pk2');
INSERT INTO c2 VALUES ('pk1'), ('pk2');
INSERT INTO c3 VALUES ('pk1'), ('pk2');

# ON DELETE CASCADE from b1 downward
statement ok
DELETE FROM b1 WHERE id = 'pk2';

query IIIIII
SELECT
  (SELECT count(*) FROM a)
 ,(SELECT count(*) FROM b1)
 ,(SELECT count(*) FROM b2)
 ,(SELECT count(*) FROM c1)
 ,(SELECT count(*) FROM c2)
 ,(SELECT count(*) FROM c3)
;
----
2 1 2 1 1 2

# ON DELETE CASCADE
statement ok
DELETE FROM a WHERE id = 'pk1';

query IIIIII
SELECT
  (SELECT count(*) FROM a)
 ,(SELECT count(*) FROM b1)
 ,(SELECT count(*) FROM b2)
 ,(SELECT count(*) FROM c1)
 ,(SELECT count(*) FROM c2)
 ,(SELECT count(*) FROM c3)
;
----
1 0 1 0 0 1

# ON DELETE CASCADE for the rest
statement ok
DELETE FROM a WHERE id = 'pk2';

query IIIIII
SELECT
  (SELECT count(*) FROM a)
 ,(SELECT count(*) FROM b1)
 ,(SELECT count(*) FROM b2)
 ,(SELECT count(*) FROM c1)
 ,(SELECT count(*) FROM c2)
 ,(SELECT count(*) FROM c3)
;
----
0 0 0 0 0 0

# Clean up after the test.
statement ok
DROP TABLE c3, c2, c1, b2, b1, a;

subtest DeleteCascade_InterleavedRestrict
### Basic Delete Cascade with Interleaved Tables To Restrict
#     a
#    / \
#   b1 b2
#  / \   \
# c1  c2  c3
#
# In this test, c3 is restricted, so deleting from a should fail, but from b1
# should be ok.

statement ok
CREATE TABLE a (
  id STRING PRIMARY KEY
);

statement ok
CREATE TABLE b1 (
  id STRING PRIMARY KEY REFERENCES a ON DELETE CASCADE
) INTERLEAVE IN PARENT a (id);

statement ok
CREATE TABLE b2 (
  id STRING PRIMARY KEY REFERENCES a ON DELETE CASCADE
) INTERLEAVE IN PARENT a (id);

statement ok
CREATE TABLE c1 (
  id STRING PRIMARY KEY REFERENCES b1 ON DELETE CASCADE
) INTERLEAVE IN PARENT b1 (id);

statement ok
CREATE TABLE c2 (
  id STRING PRIMARY KEY REFERENCES b1 ON DELETE CASCADE
) INTERLEAVE IN PARENT b1 (id);

statement ok
CREATE TABLE c3 (
  id STRING PRIMARY KEY REFERENCES b2 ON DELETE RESTRICT
) INTERLEAVE IN PARENT b2 (id);

statement ok
INSERT INTO a VALUES ('pk1'), ('pk2');
INSERT INTO b1 VALUES ('pk1'), ('pk2');
INSERT INTO b2 VALUES ('pk1'), ('pk2');
INSERT INTO c1 VALUES ('pk1'), ('pk2');
INSERT INTO c2 VALUES ('pk1'), ('pk2');
INSERT INTO c3 VALUES ('pk1'), ('pk2');

# ON DELETE CASCADE from b1 downward
statement ok
DELETE FROM b1 WHERE id = 'pk2';

query IIIIII
SELECT
  (SELECT count(*) FROM a)
 ,(SELECT count(*) FROM b1)
 ,(SELECT count(*) FROM b2)
 ,(SELECT count(*) FROM c1)
 ,(SELECT count(*) FROM c2)
 ,(SELECT count(*) FROM c3)
;
----
2 1 2 1 1 2

# ON DELETE CASCADE
statement error delete on table "b2" violates foreign key constraint "fk_id_ref_b2" on table "c3"\nDETAIL: Key \(id\)=\('pk1'\) is still referenced from table "c3"\.
DELETE FROM a WHERE id = 'pk1';

# Clean up after the test.
statement ok
DROP TABLE c3, c2, c1, b2, b1, a;

subtest DeleteCascade_SelfReference
### Self Reference Delete Cascade
# self <- self

statement ok
CREATE TABLE self (
  id INT PRIMARY KEY
 ,other_id INT REFERENCES self ON DELETE CASCADE
);

statement ok
INSERT INTO self VALUES (1, NULL);
INSERT INTO self VALUES (2, 1);
INSERT INTO self VALUES (3, 2);
INSERT INTO self VALUES (4, 3);

statement ok
DELETE FROM self WHERE id = 1;

query I
SELECT count(*) FROM self
----
0

# Clean up after the test.
statement ok
DROP TABLE self;

subtest DeleteCascade_SelfReferenceCycle
### Self Reference Delete Cascade Cycle
# self <- self

statement ok
CREATE TABLE self (
  id INT PRIMARY KEY
 ,other_id INT REFERENCES self ON DELETE CASCADE
);

statement ok
INSERT INTO self VALUES (1, NULL);
INSERT INTO self VALUES (2, 1);
INSERT INTO self VALUES (3, 2);
INSERT INTO self VALUES (4, 3);

statement ok
UPDATE self SET other_id = 4 WHERE id = 1;

statement ok
DELETE FROM self WHERE id = 1;

query I
SELECT count(*) FROM self
----
0

# Clean up after the test.
statement ok
DROP TABLE self;

subtest DeleteCascade_TwoTableLoop
### Delete cascade loop between two tables
# loop_a <- loop_b
# loop_b <- loop_a

statement ok
CREATE TABLE loop_a (
  id STRING PRIMARY KEY
 ,cascade_delete STRING
 ,INDEX(cascade_delete)
);

statement ok
CREATE TABLE loop_b (
  id STRING PRIMARY KEY
 ,cascade_delete STRING REFERENCES loop_a ON DELETE CASCADE
);

statement ok
ALTER TABLE loop_a ADD CONSTRAINT cascade_delete_constraint
  FOREIGN KEY (cascade_delete) REFERENCES loop_b (id)
  ON DELETE CASCADE;

statement ok
INSERT INTO loop_a (id, cascade_delete) VALUES ('loop_a-pk1', NULL);
INSERT INTO loop_b (id, cascade_delete) VALUES ('loop_b-pk1', 'loop_a-pk1');
INSERT INTO loop_a (id, cascade_delete) VALUES ('loop_a-pk2', 'loop_b-pk1');
INSERT INTO loop_b (id, cascade_delete) VALUES ('loop_b-pk2', 'loop_a-pk2');
INSERT INTO loop_a (id, cascade_delete) VALUES ('loop_a-pk3', 'loop_b-pk2');
INSERT INTO loop_b (id, cascade_delete) VALUES ('loop_b-pk3', 'loop_a-pk3');

statement ok
UPDATE loop_a SET cascade_delete = 'loop_b-pk3' WHERE id = 'loop_a-pk1';

statement ok
DELETE FROM loop_a WHERE id = 'loop_a-pk1';

query II
SELECT
  (SELECT count(*) FROM loop_a)
 ,(SELECT count(*) FROM loop_b)
;
----
0 0

# Clean up after the test.
statement ok
DROP TABLE loop_a, loop_b;

subtest DeleteCascade_TwoTableLoopCycle
### Delete cascade loop between two tables with cycle
# loop_a <- loop_b
# loop_b <- loop_a

statement ok
CREATE TABLE loop_a (
  id STRING PRIMARY KEY
 ,cascade_delete STRING
 ,INDEX(cascade_delete)
);

statement ok
CREATE TABLE loop_b (
  id STRING PRIMARY KEY
 ,cascade_delete STRING REFERENCES loop_a ON DELETE CASCADE
);

statement ok
ALTER TABLE loop_a ADD CONSTRAINT cascade_delete_constraint
  FOREIGN KEY (cascade_delete) REFERENCES loop_b (id)
  ON DELETE CASCADE;

statement ok
INSERT INTO loop_a (id, cascade_delete) VALUES ('loop_a-pk1', NULL);
INSERT INTO loop_b (id, cascade_delete) VALUES ('loop_b-pk1', 'loop_a-pk1');
INSERT INTO loop_a (id, cascade_delete) VALUES ('loop_a-pk2', 'loop_b-pk1');
INSERT INTO loop_b (id, cascade_delete) VALUES ('loop_b-pk2', 'loop_a-pk2');
INSERT INTO loop_a (id, cascade_delete) VALUES ('loop_a-pk3', 'loop_b-pk2');
INSERT INTO loop_b (id, cascade_delete) VALUES ('loop_b-pk3', 'loop_a-pk3');

statement ok
DELETE FROM loop_a WHERE id = 'loop_a-pk1';

query II
SELECT
  (SELECT count(*) FROM loop_a)
 ,(SELECT count(*) FROM loop_b)
;
----
0 0

# Clean up after the test.
statement ok
DROP TABLE loop_a, loop_b;

subtest DeleteCascade_DoubleSelfReference
### Delete cascade double self reference
# self_x2 (x) <- (y)
# self_x2 (y) <- (z)

statement ok
CREATE TABLE self_x2 (
  x STRING PRIMARY KEY
 ,y STRING UNIQUE REFERENCES self_x2(x) ON DELETE CASCADE
 ,z STRING REFERENCES self_x2(y) ON DELETE CASCADE
);

statement ok
INSERT INTO self_x2 (x, y, z) VALUES ('pk1', NULL, NULL);
INSERT INTO self_x2 (x, y, z) VALUES ('pk2', 'pk1', NULL);
INSERT INTO self_x2 (x, y, z) VALUES ('pk3', 'pk2', 'pk1');

statement ok
DELETE FROM self_x2 WHERE x = 'pk1';

query I
SELECT count(*) FROM self_x2
----
0

# Clean up after the test.
statement ok
DROP TABLE self_x2;

subtest DeleteCascade_Race
### Delete cascade race
#         a
#        / \
#       b   c
#       |   |
#       |   d
#        \ /
#         e
statement ok
CREATE TABLE a (
  id STRING PRIMARY KEY
);

statement ok
CREATE TABLE b (
  id STRING PRIMARY KEY
 ,a_id STRING REFERENCES a ON DELETE CASCADE
);

statement ok
CREATE TABLE c (
  id STRING PRIMARY KEY
 ,a_id STRING REFERENCES a ON DELETE CASCADE
);

statement ok
CREATE TABLE d (
  id STRING PRIMARY KEY
 ,c_id STRING REFERENCES c ON DELETE CASCADE
);

statement ok
CREATE TABLE e (
  id STRING PRIMARY KEY
 ,b_id STRING REFERENCES b ON DELETE CASCADE
 ,d_id STRING REFERENCES d ON DELETE CASCADE
);

statement ok
INSERT INTO a (id) VALUES ('a1');
INSERT INTO b (id, a_id) VALUES ('b1', 'a1');
INSERT INTO c (id, a_id) VALUES ('c1', 'a1');
INSERT INTO d (id, c_id) VALUES ('d1', 'c1');
INSERT INTO e (id, b_id, d_id) VALUES ('e1', 'b1', 'd1');

statement ok
DELETE FROM a WHERE id = 'a1';

query IIIII
SELECT
  (SELECT count(*) FROM a)
 ,(SELECT count(*) FROM b)
 ,(SELECT count(*) FROM c)
 ,(SELECT count(*) FROM d)
 ,(SELECT count(*) FROM e)
;
----
0 0 0 0 0

# Clean up after the test.
statement ok
DROP TABLE e, d, c, b, a;

subtest DeleteCascade_Multi
# Ensures that the cascader can be reused. See #21563.

statement ok
CREATE TABLE a (
  id INT PRIMARY KEY
);
CREATE TABLE b (
  id INT PRIMARY KEY
 ,a_id INT REFERENCES a ON DELETE CASCADE
)

statement ok
INSERT INTO a VALUES (1), (2), (3);
INSERT INTO b VALUES (1, 1), (2, NULL), (3, 2), (4, 1), (5, NULL);

statement ok
DELETE FROM a;

query II rowsort
SELECT id, a_id FROM b;
----
2  NULL
5  NULL

# Clean up.
statement ok
DROP TABLE b, a;

subtest UpdateCascade_Basic
### Basic Update Cascade
#     a
#    / \
#   b1 b2
#  / \   \
# c1  c2  c3

statement ok
CREATE TABLE a (
  id STRING PRIMARY KEY
);

statement ok
CREATE TABLE b1 (
  id STRING PRIMARY KEY
 ,update_cascade STRING NOT NULL UNIQUE REFERENCES a ON UPDATE CASCADE
);

statement ok
CREATE TABLE b2 (
  id STRING PRIMARY KEY
 ,update_cascade STRING NOT NULL UNIQUE REFERENCES a ON UPDATE CASCADE
);

statement ok
CREATE TABLE c1 (
  id STRING PRIMARY KEY
 ,update_cascade STRING NOT NULL REFERENCES b1 (update_cascade) ON UPDATE CASCADE
);

statement ok
CREATE TABLE c2 (
  id STRING PRIMARY KEY
 ,update_cascade STRING NOT NULL REFERENCES b1 (update_cascade) ON UPDATE CASCADE
);

statement ok
CREATE TABLE c3 (
  id STRING PRIMARY KEY REFERENCES b2(update_cascade) ON UPDATE CASCADE
);

statement ok
INSERT INTO a VALUES ('original');
INSERT INTO b1 VALUES ('b1-pk1', 'original');
INSERT INTO b2 VALUES ('b2-pk1', 'original');
INSERT INTO c1 VALUES
  ('c1-pk1', 'original')
 ,('c1-pk2', 'original')
 ,('c1-pk3', 'original')
 ,('c1-pk4', 'original')
;
INSERT INTO c2 VALUES
  ('c2-pk1', 'original')
 ,('c2-pk2', 'original')
 ,('c2-pk3', 'original')
 ,('c2-pk4', 'original')
;
INSERT INTO c3 VALUES ('original');

# ON UPDATE CASCADE
statement ok
UPDATE a SET id = 'updated' WHERE id = 'original';

query T
SELECT * FROM a;
----
updated

query TT
SELECT * FROM b1;
----
b1-pk1 updated

query TT
SELECT * FROM b2;
----
b2-pk1 updated

query TT rowsort
SELECT * FROM c1;
----
c1-pk1 updated
c1-pk2 updated
c1-pk3 updated
c1-pk4 updated

query TT rowsort
SELECT * FROM c2;
----
c2-pk1 updated
c2-pk2 updated
c2-pk3 updated
c2-pk4 updated

# Clean up after the test.
statement ok
DROP TABLE c3, c2, c1, b2, b1, a;

subtest UpdateCascade_PrimaryKeys
### Basic Update Cascade using only primary keys
#     a
#    / \
#   b1 b2
#  / \
# c1  c2

statement ok
CREATE TABLE a (
  id STRING PRIMARY KEY
);

statement ok
CREATE TABLE b1 (
  id STRING PRIMARY KEY REFERENCES a ON UPDATE CASCADE
);

statement ok
CREATE TABLE b2 (
  id STRING PRIMARY KEY REFERENCES a ON UPDATE CASCADE
);

statement ok
CREATE TABLE c1 (
  id STRING PRIMARY KEY REFERENCES b1 ON UPDATE CASCADE
);

statement ok
CREATE TABLE c2 (
  id STRING PRIMARY KEY REFERENCES b1 ON UPDATE CASCADE
);

statement ok
INSERT INTO a VALUES ('original');
INSERT INTO b1 VALUES ('original');
INSERT INTO b2 VALUES ('original');
INSERT INTO c1 VALUES ('original');
INSERT INTO c2 VALUES ('original');

# ON UPDATE CASCADE
statement ok
UPDATE a SET id = 'updated' WHERE id = 'original';

query TTTTT
SELECT
  (SELECT id FROM a)
 ,(SELECT id FROM b1)
 ,(SELECT id FROM b2)
 ,(SELECT id FROM c1)
 ,(SELECT id FROM c2)
;
----
updated updated updated updated updated

# Clean up after the test.
statement ok
DROP TABLE c2, c1, b2, b1, a;

subtest UpdateCascade_CompositeFKs_MatchSimple
### Basic Update Cascade with composite FKs
#     a
#    / \
#   b1 b2
#  / \
# c1  c2

statement ok
CREATE TABLE a (
  id STRING PRIMARY KEY
 ,x INT
 ,UNIQUE (id, x)
);

statement ok
CREATE TABLE b1 (
  id STRING PRIMARY KEY
 ,a_id STRING
 ,x INT
 ,y INT
 ,INDEX (a_id, x, y)
 ,FOREIGN KEY (a_id, x) REFERENCES a (id, x) ON UPDATE CASCADE
 ,UNIQUE (id, x)
);

statement ok
CREATE TABLE b2 (
  id STRING PRIMARY KEY
 ,a_id STRING
 ,x INT
 ,y INT
 ,INDEX (a_id, x, y)
 ,FOREIGN KEY (a_id, x) REFERENCES a (id, x) ON UPDATE CASCADE
 ,UNIQUE (id, x)
);

statement ok
CREATE TABLE c1 (
  id STRING PRIMARY KEY
 ,b_id STRING
 ,x INT
 ,FOREIGN KEY (b_id, x) REFERENCES b1 (id, x) ON UPDATE CASCADE
);

statement ok
CREATE TABLE c2 (
  id STRING PRIMARY KEY
 ,b_id STRING
 ,x INT
 ,FOREIGN KEY (b_id, x) REFERENCES b1 (id, x) ON UPDATE CASCADE
);

statement ok
INSERT INTO a VALUES ('a-pk1', 1);
INSERT INTO b1 VALUES ('b1-pk1', 'a-pk1', 1, 1), ('b1-pk2', 'a-pk1', 1, 2);
INSERT INTO b2 VALUES ('b2-pk1', 'a-pk1', 1, 1), ('b2-pk2', 'a-pk1', 1, 2);
INSERT INTO c1 VALUES
  ('c1-pk1-b1-pk1', 'b1-pk1', 1)
 ,('c1-pk2-b1-pk1', 'b1-pk1', 1)
 ,('c1-pk3-b1-pk2', 'b1-pk2', 1)
 ,('c1-pk4-b1-pk2', 'b1-pk2', 1)
;
INSERT INTO c2 VALUES
  ('c2-pk1-b1-pk1', 'b1-pk1', 1)
 ,('c2-pk2-b1-pk1', 'b1-pk1', 1)
 ,('c2-pk3-b1-pk2', 'b1-pk2', 1)
 ,('c2-pk4-b1-pk2', 'b1-pk2', 1)
;

# ON UPDATE CASCADE
statement ok
UPDATE a SET x = 2 WHERE x = 1;

query TI
SELECT * FROM a;
----
a-pk1 2

query TTII rowsort
SELECT * FROM b1;
----
b1-pk1  a-pk1  2  1
b1-pk2  a-pk1  2  2

query TTII rowsort
SELECT * FROM b2;
----
b2-pk1  a-pk1  2  1