# LogicTest: default opt parallel-stmts distsql distsql-metadata distsql-opt

query II colnames
SELECT * FROM ROWS FROM (generate_series(1,2), generate_series(4,8))
----
generate_series  generate_series
1                4
2                5
NULL             6
NULL             7
NULL             8

query II colnames
SELECT * FROM ROWS FROM (generate_series(1,0), generate_series(1,0))
----
generate_series  generate_series

query II colnames
SELECT * FROM ROWS FROM (generate_series(1,2), greatest(1,2,3,4))
----
generate_series  greatest
1                4
2                NULL

query IT colnames
SELECT * FROM ROWS FROM (generate_series(1,2), current_user)
----
generate_series  current_user
1                root
2                NULL

query III colnames
SELECT * FROM ROWS FROM (information_schema._pg_expandarray(array[4,5,6]), generate_series(10,15));
----
x     n     generate_series
4     1     10
5     2     11
6     3     12
NULL  NULL  13
NULL  NULL  14
NULL  NULL  15
